
******************************************************************************
This program contains Ipopt, a library for large-scale nonlinear optimization.
 Ipopt is released as open source code under the Eclipse Public License (EPL).
         For more information visit http://projects.coin-or.org/Ipopt

This version of Ipopt was compiled from source code available at
    https://github.com/IDAES/Ipopt as part of the Institute for the Design of
    Advanced Energy Systems Process Systems Engineering Framework (IDAES PSE
    Framework) Copyright (c) 2018-2019. See https://github.com/IDAES/idaes-pse.

This version of Ipopt was compiled using HSL, a collection of Fortran codes
    for large-scale scientific computation.  All technical papers, sales and
    publicity material resulting from use of the HSL codes within IPOPT must
    contain the following acknowledgement:
        HSL, a collection of Fortran codes for large-scale scientific
        computation. See http://www.hsl.rl.ac.uk.
******************************************************************************

This is Ipopt version 3.13.2, running with linear solver ma27.

Number of nonzeros in equality constraint Jacobian...:      808
Number of nonzeros in inequality constraint Jacobian.:        0
Number of nonzeros in Lagrangian Hessian.............:      702

Total number of variables............................:      351
                     variables with only lower bounds:      108
                variables with lower and upper bounds:      189
                     variables with only upper bounds:        0
Total number of equality constraints.................:      350
Total number of inequality constraints...............:        0
        inequality constraints with only lower bounds:        0
   inequality constraints with lower and upper bounds:        0
        inequality constraints with only upper bounds:        0

iter    objective    inf_pr   inf_du lg(mu)  ||d||  lg(rg) alpha_du alpha_pr  ls
   0  0.0000000e+00 9.51e-01 8.88e-16  -1.0 0.00e+00    -  0.00e+00 0.00e+00   0
   1  8.2267795e-01 3.12e-01 2.78e+03  -1.0 6.30e+04    -  9.00e-01 9.90e-01h  1
   2  8.8814269e-01 4.42e-02 4.02e+02  -1.0 2.97e+03    -  5.99e-01 9.90e-01h  1
   3  8.8873971e-01 2.14e-03 1.21e+02  -1.0 2.59e+02    -  9.90e-01 9.90e-01h  1
   4  8.9168845e-01 1.30e-03 2.67e+04  -1.0 2.83e+03    -  9.87e-01 9.90e-01h  1
   5  9.1263073e-01 4.75e-04 1.69e+03  -1.0 8.76e+03    -  9.90e-01 9.90e-01H  1
   6  8.9211504e-01 2.88e-04 7.52e+06  -3.8 8.12e+03    -  9.50e-01 1.00e+00H  1
In iteration 6, 27 Slacks too small, adjusting variable bounds
   7  8.8823579e-01 2.44e-03 5.51e+06  -3.8 3.99e+03    -  1.00e+00 1.00e+00h  1
   8  8.8782303e-01 1.80e-04 1.68e-02  -3.8 1.40e+03    -  1.00e+00 1.00e+00h  1
   9  8.8779783e-01 2.86e-05 4.21e-03  -5.7 4.10e+02    -  1.00e+00 1.00e+00h  1
iter    objective    inf_pr   inf_du lg(mu)  ||d||  lg(rg) alpha_du alpha_pr  ls
  10  8.8779765e-01 1.07e-07 1.52e-05  -5.7 2.74e+01    -  1.00e+00 1.00e+00h  1
  11  8.8779765e-01 4.52e-10 5.96e-08  -8.6 1.53e+00    -  1.00e+00 1.00e+00h  1

Number of Iterations....: 11

                                   (scaled)                 (unscaled)
Objective...............:   8.8779764604268274e-01    8.8779764604268274e-01
Dual infeasibility......:   5.9604644775390625e-08    5.9604644775390625e-08
Constraint violation....:   4.1898813363479375e-10    4.5240583501637843e-10
Complementarity.........:   3.0598287472205621e-09    3.0598287472205621e-09
Overall NLP error.......:   4.8463791714761251e-09    5.9604644775390625e-08


Number of objective function evaluations             = 17
Number of objective gradient evaluations             = 12
Number of equality constraint evaluations            = 17
Number of inequality constraint evaluations          = 0
Number of equality constraint Jacobian evaluations   = 12
Number of inequality constraint Jacobian evaluations = 0
Number of Lagrangian Hessian evaluations             = 11
Total CPU secs in IPOPT (w/o function evaluations)   =      0.024
Total CPU secs in NLP function evaluations           =      0.197

EXIT: Optimal Solution Found.
